50246
1 1 1 1 1 1 0 1 1 1 1 1 1 0 1 1 1 1 0 1 1 0 1 1 1 0 1 1 1 0
19 20 1 15 9 3 8 3 24 5 9 4 10 14 27 2 7 16 16 20 16 16 4 19 17 8 7 0 3 16 4 5 7 3 2 16 7 24 26 10 1 12 12 1 3 22 12 5 22 19 17 19 24 4 17 28 5 5 14 15 17 27 22 20 15 4 5 14 9 10 15 3 2 8 22 15 16 11 3 14 5 12 11 23 20 5 4 2 24 15 9 7 0 27 7 17 20 8 22 3 2 9 19 11 27 7 1 23 11 9 7 16 9 1 7 17 20 8 11 3 0 10 2 22 28 15 14 20 8 2 10 12 12 9 16 26 5 23 14 1 2 17 19 11 11 19 11 8 11 9 8 11 5 22 4 24 0 24 12 17 23 8 19 17 26 0 9 5 19 23 2 14 24 20 23 10 2 14 27 4 26 4 28 22 28 15 27 1 28 20 16 8 26 20 8 10 4 1 27 8